1622527200
1622557860
1622613600
1622644200
1622700000
1622730600
1622786400
1622817000
1623044400
1623076200
1623132000
1623162600
1623218400
1623249000
1623304800
1623335400
1623391200
1623414600
1623650400
1623681000
1623736800
1623767400
1623822000
1623853980
1623909600
1623940320
1623996000
1624026660
1624255200
1624286460
1624341600
1624350720
1624427100
1624459500
1624514400
1624545000
1624545000
1624546500
1624600800
1624631460
1624860000
1624890600
1624946400
1624890600
1624891500
1624977000
1625031600
1625063400
